50, 125050
16, 5000
16, 5000
25, 5004
25, 5000
27, 5001
5, 5002
26, 5000
11, 5002
29, 5001
22, 5001
32, 5002
32, 5004
36, 5004
10, 5003
17, 5003
2, 5003
9, 5002
45, 5004
23, 5003
15, 5003
18, 5001
44, 5001
31, 5004
29, 5002
30, 5002
19, 5002
41, 5001
17, 5004
5, 5001
47, 5000
8, 5000
21, 5004
28, 5002
15, 5001
40, 5004
46, 5001
23, 5003
22, 5003
30, 5003
45, 5002
45, 5003
46, 5000
4, 5001
25, 5001
47, 5004
14, 5002
13, 5003
10, 5001
49, 5002
17, 5000
